param n := 120;
param c := 3000
param : V : p w :=
   0	  53	 458
   1	  15	 252
   2	  42	 290
   3	   9	 497
   4	   7	 250
   5	  86	 253
   6	  57	 446
   7	  34	 276
   8	  37	 278
   9	  52	 387
  10	  91	 274
  11	  42	 339
  12	  37	 462
  13	  24	 268
  14	   4	 270
  15	  59	 472
  16	  63	 258
  17	  19	 270
  18	  58	 377
  19	  38	 276
  20	  30	 347
  21	  42	 484
  22	  62	 253
  23	  16	 263
  24	  17	 490
  25	  58	 252
  26	  26	 258
  27	  75	 414
  28	  51	 250
  29	  49	 336
  30	   8	 493
  31	  58	 253
  32	  72	 254
  33	  31	 470
  34	  67	 257
  35	  52	 273
  36	  45	 403
  37	  22	 262
  38	  90	 335
  39	  10	 433
  40	  42	 273
  41	  84	 294
  42	  32	 375
  43	  95	 276
  44	  11	 349
  45	  46	 422
  46	   5	 276
  47	  90	 302
  48	  21	 446
  49	  96	 274
  50	   7	 280
  51	  85	 352
  52	  83	 318
  53	  36	 330
  54	  77	 402
  55	   8	 269
  56	   9	 329
  57	  80	 436
  58	  90	 254
  59	  20	 310
  60	   2	 357
  61	  14	 268
  62	  72	 375
  63	  52	 410
  64	  28	 262
  65	  72	 328
  66	  53	 352
  67	  37	 275
  68	  54	 373
  69	  28	 423
  70	  90	 262
  71	  75	 315
  72	  25	 426
  73	  67	 266
  74	  99	 308
  75	  26	 388
  76	  77	 251
  77	  50	 361
  78	  67	 386
  79	  69	 272
  80	  75	 342
  81	  50	 374
  82	  36	 254
  83	  33	 372
  84	  28	 408
  85	  16	 287
  86	  76	 305
  87	  42	 442
  88	  66	 252
  89	   7	 306
  90	  52	 364
  91	  73	 302
  92	  42	 334
  93	   3	 363
  94	  38	 265
  95	  95	 372
  96	  52	 396
  97	  80	 292
  98	  62	 312
  99	  48	 485
 100	  27	 255
 101	  42	 260
 102	  24	 436
 103	  92	 256
 104	  97	 308
 105	  10	 445
 106	  60	 270
 107	  37	 285
 108	  83	 419
 109	  68	 275
 110	  47	 306
 111	   7	 427
 112	  14	 250
 113	  64	 323
 114	  74	 490
 115	  10	 252
 116	   2	 258
 117	  76	 496
 118	  61	 250
 119	  35	 254
;

set E :=
   0	   1
   0	   2
   0	   4
   0	   5
   0	   9
   0	  10
   0	  16
   0	  17
   0	  20
   0	  21
   0	  23
   0	  25
   0	  28
   0	  30
   0	  32
   0	  34
   0	  38
   0	  39
   0	  40
   0	  41
   0	  44
   0	  45
   0	  46
   0	  47
   0	  49
   0	  55
   0	  57
   0	  58
   0	  61
   0	  62
   0	  63
   0	  70
   0	  71
   0	  73
   0	  77
   0	  79
   0	  80
   0	  81
   0	  82
   0	  84
   0	  90
   0	  91
   0	  92
   0	  93
   0	  94
   0	  97
   0	  98
   0	  99
   0	 100
   0	 101
   0	 103
   0	 104
   0	 106
   0	 115
   0	 118
   1	   3
   1	   7
   1	  11
   1	  12
   1	  13
   1	  14
   1	  15
   1	  16
   1	  17
   1	  19
   1	  20
   1	  21
   1	  23
   1	  25
   1	  26
   1	  28
   1	  29
   1	  30
   1	  33
   1	  34
   1	  35
   1	  39
   1	  43
   1	  44
   1	  46
   1	  48
   1	  49
   1	  50
   1	  51
   1	  53
   1	  54
   1	  55
   1	  57
   1	  58
   1	  61
   1	  62
   1	  65
   1	  68
   1	  69
   1	  71
   1	  72
   1	  75
   1	  79
   1	  80
   1	  81
   1	  82
   1	  83
   1	  84
   1	  89
   1	  92
   1	  95
   1	  99
   1	 100
   1	 102
   1	 103
   1	 104
   1	 105
   1	 106
   1	 109
   1	 111
   1	 112
   1	 113
   1	 115
   1	 119
   2	   4
   2	   6
   2	   7
   2	  10
   2	  12
   2	  17
   2	  18
   2	  19
   2	  20
   2	  22
   2	  23
   2	  24
   2	  25
   2	  28
   2	  30
   2	  31
   2	  33
   2	  36
   2	  38
   2	  40
   2	  41
   2	  42
   2	  43
   2	  46
   2	  47
   2	  49
   2	  51
   2	  52
   2	  53
   2	  56
   2	  57
   2	  61
   2	  63
   2	  64
   2	  65
   2	  67
   2	  68
   2	  75
   2	  76
   2	  79
   2	  80
   2	  84
   2	  86
   2	  87
   2	  89
   2	  90
   2	  91
   2	  92
   2	  93
   2	  94
   2	  96
   2	  97
   2	  98
   2	  99
   2	 100
   2	 101
   2	 102
   2	 104
   2	 105
   2	 106
   2	 107
   2	 108
   2	 110
   2	 111
   2	 112
   2	 113
   2	 115
   2	 117
   2	 118
   3	   7
   3	   8
   3	   9
   3	  14
   3	  15
   3	  16
   3	  17
   3	  18
   3	  19
   3	  21
   3	  24
   3	  26
   3	  27
   3	  28
   3	  32
   3	  38
   3	  39
   3	  41
   3	  43
   3	  45
   3	  50
   3	  54
   3	  56
   3	  57
   3	  58
   3	  59
   3	  60
   3	  64
   3	  65
   3	  66
   3	  67
   3	  68
   3	  73
   3	  74
   3	  76
   3	  78
   3	  79
   3	  80
   3	  82
   3	  83
   3	  84
   3	  85
   3	  88
   3	  89
   3	  91
   3	  92
   3	  94
   3	  95
   3	 101
   3	 104
   3	 105
   3	 107
   3	 109
   3	 110
   3	 112
   3	 114
   3	 116
   3	 117
   4	   9
   4	  10
   4	  14
   4	  15
   4	  17
   4	  18
   4	  20
   4	  22
   4	  24
   4	  27
   4	  29
   4	  30
   4	  32
   4	  33
   4	  37
   4	  38
   4	  40
   4	  44
   4	  45
   4	  49
   4	  51
   4	  52
   4	  53
   4	  56
   4	  60
   4	  64
   4	  65
   4	  69
   4	  71
   4	  72
   4	  75
   4	  76
   4	  77
   4	  78
   4	  81
   4	  85
   4	  86
   4	  88
   4	  90
   4	  94
   4	  96
   4	  97
   4	  99
   4	 101
   4	 103
   4	 104
   4	 107
   4	 108
   4	 109
   4	 110
   4	 113
   4	 115
   4	 116
   4	 117
   4	 118
   5	   6
   5	   7
   5	   8
   5	  10
   5	  12
   5	  13
   5	  16
   5	  18
   5	  19
   5	  20
   5	  21
   5	  23
   5	  24
   5	  25
   5	  26
   5	  27
   5	  36
   5	  37
   5	  41
   5	  45
   5	  46
   5	  47
   5	  48
   5	  51
   5	  54
   5	  55
   5	  57
   5	  58
   5	  59
   5	  62
   5	  66
   5	  67
   5	  68
   5	  69
   5	  70
   5	  71
   5	  73
   5	  74
   5	  75
   5	  78
   5	  79
   5	  80
   5	  81
   5	  82
   5	  85
   5	  86
   5	  88
   5	  89
   5	  93
   5	  94
   5	  95
   5	  97
   5	  98
   5	 101
   5	 106
   5	 108
   5	 112
   5	 113
   5	 114
   5	 115
   5	 117
   5	 118
   5	 119
   6	   9
   6	  12
   6	  13
   6	  15
   6	  17
   6	  18
   6	  29
   6	  30
   6	  31
   6	  32
   6	  34
   6	  35
   6	  38
   6	  41
   6	  42
   6	  44
   6	  46
   6	  49
   6	  51
   6	  54
   6	  56
   6	  59
   6	  61
   6	  62
   6	  64
   6	  66
   6	  67
   6	  71
   6	  73
   6	  74
   6	  75
   6	  77
   6	  78
   6	  79
   6	  81
   6	  82
   6	  83
   6	  84
   6	  85
   6	  87
   6	  88
   6	  89
   6	  90
   6	  94
   6	  95
   6	  98
   6	  99
   6	 100
   6	 102
   6	 103
   6	 104
   6	 105
   6	 106
   6	 107
   6	 111
   6	 115
   6	 118
   7	   9
   7	  10
   7	  11
   7	  13
   7	  15
   7	  16
   7	  17
   7	  21
   7	  22
   7	  23
   7	  24
   7	  25
   7	  28
   7	  29
   7	  30
   7	  31
   7	  34
   7	  35
   7	  36
   7	  38
   7	  39
   7	  41
   7	  42
   7	  48
   7	  52
   7	  53
   7	  54
   7	  55
   7	  56
   7	  57
   7	  59
   7	  60
   7	  64
   7	  67
   7	  68
   7	  70
   7	  71
   7	  72
   7	  73
   7	  75
   7	  76
   7	  82
   7	  83
   7	  87
   7	  88
   7	  90
   7	  91
   7	  92
   7	  95
   7	  96
   7	  98
   7	  99
   7	 100
   7	 102
   7	 103
   7	 104
   7	 106
   7	 107
   7	 108
   7	 112
   7	 115
   7	 118
   8	  10
   8	  11
   8	  12
   8	  16
   8	  17
   8	  18
   8	  19
   8	  22
   8	  23
   8	  25
   8	  27
   8	  29
   8	  30
   8	  32
   8	  33
   8	  39
   8	  41
   8	  42
   8	  43
   8	  44
   8	  46
   8	  47
   8	  48
   8	  49
   8	  50
   8	  56
   8	  57
   8	  59
   8	  67
   8	  68
   8	  69
   8	  70
   8	  71
   8	  73
   8	  74
   8	  76
   8	  77
   8	  78
   8	  79
   8	  80
   8	  81
   8	  82
   8	  86
   8	  89
   8	  90
   8	  96
   8	 100
   8	 101
   8	 103
   8	 106
   8	 107
   8	 108
   8	 109
   8	 110
   8	 113
   8	 117
   9	  11
   9	  12
   9	  13
   9	  15
   9	  17
   9	  18
   9	  19
   9	  23
   9	  25
   9	  26
   9	  28
   9	  31
   9	  35
   9	  41
   9	  47
   9	  51
   9	  52
   9	  53
   9	  54
   9	  58
   9	  59
   9	  61
   9	  63
   9	  65
   9	  66
   9	  67
   9	  68
   9	  71
   9	  72
   9	  74
   9	  78
   9	  79
   9	  80
   9	  82
   9	  83
   9	  85
   9	  88
   9	  92
   9	  93
   9	  95
   9	  96
   9	  98
   9	  99
   9	 100
   9	 104
   9	 106
   9	 107
   9	 109
   9	 110
   9	 117
   9	 118
   9	 119
  10	  12
  10	  15
  10	  17
  10	  18
  10	  20
  10	  22
  10	  24
  10	  25
  10	  27
  10	  30
  10	  31
  10	  32
  10	  33
  10	  34
  10	  35
  10	  36
  10	  37
  10	  38
  10	  40
  10	  41
  10	  42
  10	  43
  10	  44
  10	  51
  10	  52
  10	  53
  10	  55
  10	  56
  10	  57
  10	  58
  10	  59
  10	  62
  10	  65
  10	  67
  10	  69
  10	  70
  10	  72
  10	  74
  10	  76
  10	  78
  10	  79
  10	  80
  10	  82
  10	  85
  10	  86
  10	  87
  10	  88
  10	  90
  10	  92
  10	  94
  10	  95
  10	 101
  10	 102
  10	 104
  10	 105
  10	 108
  10	 109
  10	 110
  10	 112
  10	 113
  10	 115
  10	 117
  10	 118
  11	  12
  11	  15
  11	  16
  11	  20
  11	  21
  11	  24
  11	  26
  11	  27
  11	  30
  11	  33
  11	  34
  11	  35
  11	  38
  11	  40
  11	  41
  11	  43
  11	  49
  11	  50
  11	  51
  11	  54
  11	  55
  11	  56
  11	  57
  11	  58
  11	  65
  11	  66
  11	  68
  11	  69
  11	  70
  11	  71
  11	  80
  11	  81
  11	  84
  11	  85
  11	  86
  11	  87
  11	  92
  11	  95
  11	  99
  11	 101
  11	 103
  11	 104
  11	 107
  11	 108
  11	 109
  11	 110
  11	 111
  11	 114
  11	 116
  11	 117
  11	 118
  12	  14
  12	  15
  12	  16
  12	  19
  12	  20
  12	  22
  12	  24
  12	  25
  12	  26
  12	  27
  12	  28
  12	  30
  12	  32
  12	  33
  12	  36
  12	  39
  12	  40
  12	  42
  12	  43
  12	  44
  12	  45
  12	  46
  12	  47
  12	  50
  12	  53
  12	  58
  12	  59
  12	  61
  12	  63
  12	  64
  12	  65
  12	  67
  12	  69
  12	  73
  12	  74
  12	  75
  12	  76
  12	  79
  12	  83
  12	  84
  12	  85
  12	  87
  12	  88
  12	  92
  12	  93
  12	  96
  12	  98
  12	  99
  12	 101
  12	 102
  12	 103
  12	 105
  12	 106
  12	 107
  12	 110
  12	 115
  12	 116
  12	 118
  12	 119
  13	  14
  13	  16
  13	  19
  13	  21
  13	  23
  13	  28
  13	  30
  13	  31
  13	  35
  13	  38
  13	  39
  13	  41
  13	  43
  13	  46
  13	  47
  13	  48
  13	  54
  13	  55
  13	  56
  13	  57
  13	  59
  13	  60
  13	  65
  13	  67
  13	  68
  13	  71
  13	  72
  13	  73
  13	  74
  13	  76
  13	  81
  13	  82
  13	  85
  13	  87
  13	  89
  13	  91
  13	  93
  13	  94
  13	  95
  13	  97
  13	  98
  13	 100
  13	 101
  13	 103
  13	 105
  13	 107
  13	 108
  13	 111
  13	 114
  13	 118
  13	 119
  14	  16
  14	  19
  14	  22
  14	  23
  14	  25
  14	  27
  14	  28
  14	  29
  14	  31
  14	  35
  14	  38
  14	  41
  14	  43
  14	  45
  14	  46
  14	  49
  14	  50
  14	  52
  14	  53
  14	  55
  14	  56
  14	  57
  14	  60
  14	  61
  14	  62
  14	  64
  14	  65
  14	  66
  14	  69
  14	  70
  14	  72
  14	  74
  14	  75
  14	  76
  14	  77
  14	  78
  14	  80
  14	  81
  14	  83
  14	  84
  14	  85
  14	  88
  14	  89
  14	  90
  14	  94
  14	  98
  14	 100
  14	 102
  14	 104
  14	 109
  14	 112
  14	 114
  14	 115
  14	 116
  14	 117
  14	 118
  14	 119
  15	  16
  15	  17
  15	  19
  15	  20
  15	  21
  15	  22
  15	  23
  15	  26
  15	  30
  15	  31
  15	  33
  15	  34
  15	  36
  15	  40
  15	  41
  15	  43
  15	  44
  15	  45
  15	  46
  15	  51
  15	  55
  15	  57
  15	  58
  15	  60
  15	  64
  15	  66
  15	  67
  15	  69
  15	  70
  15	  71
  15	  74
  15	  75
  15	  76
  15	  77
  15	  79
  15	  81
  15	  83
  15	  84
  15	  85
  15	  86
  15	  87
  15	  88
  15	  89
  15	  90
  15	  91
  15	  92
  15	  93
  15	  96
  15	  99
  15	 101
  15	 102
  15	 104
  15	 107
  15	 109
  15	 110
  15	 111
  15	 116
  16	  17
  16	  18
  16	  20
  16	  22
  16	  24
  16	  25
  16	  28
  16	  29
  16	  30
  16	  33
  16	  34
  16	  35
  16	  36
  16	  40
  16	  42
  16	  43
  16	  47
  16	  49
  16	  50
  16	  51
  16	  56
  16	  58
  16	  61
  16	  62
  16	  63
  16	  64
  16	  66
  16	  69
  16	  70
  16	  75
  16	  79
  16	  80
  16	  83
  16	  85
  16	  86
  16	  88
  16	  90
  16	  91
  16	  95
  16	  96
  16	  98
  16	  99
  16	 100
  16	 101
  16	 104
  16	 107
  16	 108
  16	 109
  16	 111
  16	 112
  16	 114
  16	 119
  17	  18
  17	  20
  17	  21
  17	  26
  17	  27
  17	  28
  17	  30
  17	  31
  17	  33
  17	  35
  17	  37
  17	  39
  17	  44
  17	  45
  17	  47
  17	  48
  17	  49
  17	  51
  17	  54
  17	  55
  17	  56
  17	  57
  17	  58
  17	  60
  17	  65
  17	  66
  17	  71
  17	  72
  17	  73
  17	  74
  17	  75
  17	  77
  17	  78
  17	  81
  17	  82
  17	  83
  17	  84
  17	  88
  17	  90
  17	  91
  17	  93
  17	  95
  17	  97
  17	 100
  17	 102
  17	 104
  17	 105
  17	 106
  17	 108
  17	 115
  17	 117
  17	 119
  18	  20
  18	  21
  18	  22
  18	  25
  18	  26
  18	  27
  18	  29
  18	  32
  18	  34
  18	  36
  18	  38
  18	  39
  18	  41
  18	  42
  18	  43
  18	  46
  18	  47
  18	  49
  18	  50
  18	  51
  18	  52
  18	  54
  18	  57
  18	  58
  18	  60
  18	  62
  18	  63
  18	  64
  18	  67
  18	  68
  18	  71
  18	  73
  18	  76
  18	  78
  18	  80
  18	  81
  18	  86
  18	  88
  18	  90
  18	  91
  18	  95
  18	  97
  18	  98
  18	 102
  18	 103
  18	 105
  18	 107
  18	 109
  18	 110
  18	 111
  18	 112
  18	 114
  18	 115
  18	 116
  18	 117
  18	 118
  18	 119
  19	  24
  19	  25
  19	  26
  19	  30
  19	  31
  19	  33
  19	  34
  19	  35
  19	  36
  19	  39
  19	  42
  19	  43
  19	  44
  19	  45
  19	  46
  19	  52
  19	  55
  19	  56
  19	  57
  19	  58
  19	  59
  19	  60
  19	  62
  19	  64
  19	  65
  19	  67
  19	  68
  19	  72
  19	  77
  19	  81
  19	  82
  19	  83
  19	  88
  19	  90
  19	  93
  19	  94
  19	  95
  19	  98
  19	  99
  19	 100
  19	 101
  19	 102
  19	 103
  19	 104
  19	 106
  19	 108
  19	 109
  19	 110
  19	 114
  19	 115
  19	 117
  19	 118
  19	 119
  20	  22
  20	  23
  20	  24
  20	  26
  20	  27
  20	  28
  20	  31
  20	  32
  20	  34
  20	  35
  20	  38
  20	  40
  20	  43
  20	  52
  20	  53
  20	  56
  20	  57
  20	  60
  20	  61
  20	  67
  20	  68
  20	  69
  20	  71
  20	  74
  20	  75
  20	  76
  20	  80
  20	  86
  20	  88
  20	  92
  20	  93
  20	  94
  20	  95
  20	  97
  20	 101
  20	 102
  20	 103
  20	 104
  20	 107
  20	 109
  20	 110
  20	 111
  20	 114
  20	 115
  20	 117
  20	 119
  21	  23
  21	  30
  21	  31
  21	  41
  21	  43
  21	  47
  21	  48
  21	  50
  21	  51
  21	  52
  21	  53
  21	  55
  21	  59
  21	  60
  21	  61
  21	  66
  21	  67
  21	  69
  21	  71
  21	  78
  21	  79
  21	  81
  21	  82
  21	  83
  21	  87
  21	  88
  21	  89
  21	  91
  21	  93
  21	  95
  21	  96
  21	  97
  21	  98
  21	  99
  21	 101
  21	 106
  21	 109
  21	 111
  21	 116
  21	 118
  21	 119
  22	  23
  22	  25
  22	  33
  22	  34
  22	  35
  22	  37
  22	  39
  22	  40
  22	  44
  22	  46
  22	  47
  22	  48
  22	  50
  22	  55
  22	  56
  22	  58
  22	  60
  22	  63
  22	  64
  22	  65
  22	  66
  22	  74
  22	  75
  22	  78
  22	  82
  22	  83
  22	  84
  22	  87
  22	  90
  22	  91
  22	  93
  22	  94
  22	  96
  22	 100
  22	 102
  22	 103
  22	 104
  22	 105
  22	 106
  22	 109
  22	 112
  22	 113
  22	 114
  22	 115
  22	 116
  22	 117
  23	  24
  23	  28
  23	  29
  23	  30
  23	  31
  23	  32
  23	  33
  23	  35
  23	  36
  23	  38
  23	  39
  23	  41
  23	  42
  23	  46
  23	  47
  23	  49
  23	  51
  23	  53
  23	  54
  23	  56
  23	  57
  23	  60
  23	  61
  23	  63
  23	  65
  23	  68
  23	  70
  23	  71
  23	  73
  23	  76
  23	  85
  23	  86
  23	  90
  23	  91
  23	  92
  23	  93
  23	  94
  23	  95
  23	  97
  23	  99
  23	 103
  23	 104
  23	 105
  23	 106
  23	 107
  23	 109
  23	 111
  23	 115
  23	 116
  23	 117
  23	 119
  24	  25
  24	  26
  24	  27
  24	  32
  24	  33
  24	  37
  24	  38
  24	  39
  24	  45
  24	  46
  24	  47
  24	  48
  24	  51
  24	  53
  24	  54
  24	  55
  24	  59
  24	  60
  24	  62
  24	  67
  24	  71
  24	  72
  24	  74
  24	  75
  24	  77
  24	  79
  24	  83
  24	  84
  24	  85
  24	  90
  24	  91
  24	  94
  24	  95
  24	  98
  24	 101
  24	 102
  24	 104
  24	 105
  24	 107
  24	 111
  24	 113
  24	 115
  24	 117
  24	 118
  25	  27
  25	  29
  25	  32
  25	  37
  25	  41
  25	  49
  25	  53
  25	  55
  25	  56
  25	  58
  25	  60
  25	  62
  25	  63
  25	  64
  25	  72
  25	  74
  25	  75
  25	  81
  25	  84
  25	  85
  25	  88
  25	  92
  25	  94
  25	  96
  25	  98
  25	 101
  25	 102
  25	 107
  25	 108
  25	 110
  25	 112
  25	 113
  25	 115
  25	 116
  25	 117
  25	 118
  25	 119
  26	  27
  26	  28
  26	  31
  26	  32
  26	  36
  26	  38
  26	  40
  26	  41
  26	  43
  26	  45
  26	  46
  26	  49
  26	  50
  26	  51
  26	  53
  26	  54
  26	  55
  26	  56
  26	  57
  26	  58
  26	  59
  26	  60
  26	  65
  26	  66
  26	  68
  26	  71
  26	  73
  26	  74
  26	  75
  26	  76
  26	  78
  26	  79
  26	  80
  26	  81
  26	  83
  26	  85
  26	  86
  26	  87
  26	  90
  26	  91
  26	  92
  26	  93
  26	  95
  26	  96
  26	  97
  26	  99
  26	 103
  26	 107
  26	 109
  26	 112
  26	 113
  26	 114
  26	 115
  26	 117
  26	 118
  27	  30
  27	  33
  27	  37
  27	  38
  27	  39
  27	  41
  27	  43
  27	  45
  27	  46
  27	  47
  27	  48
  27	  50
  27	  53
  27	  55
  27	  56
  27	  58
  27	  64
  27	  70
  27	  71
  27	  72
  27	  74
  27	  75
  27	  76
  27	  77
  27	  78
  27	  79
  27	  80
  27	  81
  27	  82
  27	  84
  27	  85
  27	  86
  27	  87
  27	  88
  27	  89
  27	  90
  27	  93
  27	  96
  27	  97
  27	  99
  27	 100
  27	 102
  27	 103
  27	 105
  27	 106
  27	 109
  27	 111
  27	 112
  27	 113
  27	 114
  27	 115
  27	 116
  27	 118
  27	 119
  28	  29
  28	  30
  28	  31
  28	  32
  28	  33
  28	  34
  28	  37
  28	  38
  28	  41
  28	  42
  28	  43
  28	  45
  28	  50
  28	  58
  28	  60
  28	  61
  28	  66
  28	  67
  28	  69
  28	  70
  28	  71
  28	  72
  28	  73
  28	  76
  28	  77
  28	  78
  28	  80
  28	  85
  28	  87
  28	  88
  28	  90
  28	  93
  28	  94
  28	  95
  28	  96
  28	  97
  28	  98
  28	  99
  28	 101
  28	 103
  28	 107
  28	 108
  28	 109
  28	 110
  28	 112
  28	 114
  28	 115
  28	 118
  29	  31
  29	  32
  29	  34
  29	  36
  29	  38
  29	  39
  29	  40
  29	  42
  29	  44
  29	  47
  29	  48
  29	  53
  29	  54
  29	  56
  29	  59
  29	  60
  29	  61
  29	  62
  29	  63
  29	  65
  29	  67
  29	  69
  29	  72
  29	  73
  29	  74
  29	  76
  29	  80
  29	  82
  29	  85
  29	  87
  29	  90
  29	  91
  29	  96
  29	  97
  29	  98
  29	 100
  29	 101
  29	 103
  29	 106
  29	 108
  29	 112
  29	 115
  29	 116
  29	 117
  29	 118
  29	 119
  30	  32
  30	  33
  30	  34
  30	  35
  30	  37
  30	  44
  30	  45
  30	  46
  30	  53
  30	  55
  30	  59
  30	  61
  30	  62
  30	  64
  30	  67
  30	  68
  30	  69
  30	  71
  30	  72
  30	  77
  30	  78
  30	  80
  30	  81
  30	  82
  30	  84
  30	  85
  30	  86
  30	  87
  30	  88
  30	  94
  30	 101
  30	 102
  30	 103
  30	 104
  30	 107
  30	 108
  30	 109
  30	 110
  30	 112
  30	 113
  30	 116
  30	 117
  30	 119
  31	  33
  31	  37
  31	  41
  31	  43
  31	  44
  31	  48
  31	  51
  31	  53
  31	  54
  31	  55
  31	  56
  31	  58
  31	  59
  31	  60
  31	  62
  31	  68
  31	  70
  31	  72
  31	  74
  31	  76
  31	  79
  31	  81
  31	  82
  31	  83
  31	  85
  31	  88
  31	  90
  31	  91
  31	  92
  31	  94
  31	  98
  31	 101
  31	 102
  31	 103
  31	 109
  31	 111
  31	 112
  32	  33
  32	  35
  32	  36
  32	  37
  32	  43
  32	  44
  32	  45
  32	  53
  32	  57
  32	  58
  32	  59
  32	  62
  32	  63
  32	  66
  32	  67
  32	  72
  32	  77
  32	  78
  32	  80
  32	  81
  32	  82
  32	  85
  32	  86
  32	  88
  32	  89
  32	  91
  32	  92
  32	  93
  32	  97
  32	  98
  32	  99
  32	 100
  32	 104
  32	 106
  32	 108
  32	 109
  32	 112
  32	 119
  33	  34
  33	  35
  33	  37
  33	  39
  33	  40
  33	  41
  33	  42
  33	  48
  33	  55
  33	  56
  33	  59
  33	  60
  33	  61
  33	  62
  33	  63
  33	  64
  33	  65
  33	  67
  33	  68
  33	  70
  33	  72
  33	  73
  33	  74
  33	  75
  33	  78
  33	  79
  33	  81
  33	  82
  33	  83
  33	  84
  33	  85
  33	  86
  33	  90
  33	  91
  33	  95
  33	  97
  33	  98
  33	  99
  33	 101
  33	 105
  33	 107
  33	 109
  33	 110
  33	 112
  33	 116
  33	 117
  33	 119
  34	  35
  34	  36
  34	  38
  34	  40
  34	  43
  34	  46
  34	  47
  34	  51
  34	  56
  34	  60
  34	  64
  34	  67
  34	  68
  34	  70
  34	  71
  34	  74
  34	  75
  34	  78
  34	  82
  34	  89
  34	  91
  34	  92
  34	  93
  34	  94
  34	  95
  34	  96
  34	  97
  34	  98
  34	 101
  34	 102
  34	 103
  34	 107
  34	 108
  34	 109
  34	 110
  34	 114
  34	 116
  34	 118
  34	 119
  35	  36
  35	  38
  35	  39
  35	  40
  35	  42
  35	  43
  35	  45
  35	  46
  35	  47
  35	  48
  35	  50
  35	  52
  35	  53
  35	  54
  35	  56
  35	  57
  35	  58
  35	  59
  35	  60
  35	  62
  35	  67
  35	  69
  35	  70
  35	  71
  35	  72
  35	  73
  35	  74
  35	  75
  35	  76
  35	  77
  35	  79
  35	  80
  35	  81
  35	  83
  35	  84
  35	  85
  35	  87
  35	  90
  35	  92
  35	  93
  35	  94
  35	  96
  35	  97
  35	  98
  35	 100
  35	 102
  35	 103
  35	 105
  35	 107
  35	 108
  35	 110
  35	 111
  35	 113
  35	 115
  35	 116
  35	 118
  36	  37
  36	  41
  36	  44
  36	  47
  36	  49
  36	  50
  36	  52
  36	  54
  36	  57
  36	  58
  36	  60
  36	  61
  36	  63
  36	  65
  36	  67
  36	  69
  36	  71
  36	  73
  36	  77
  36	  78
  36	  83
  36	  84
  36	  86
  36	  88
  36	  89
  36	  91
  36	  96
  36	  97
  36	 100
  36	 106
  36	 108
  36	 112
  36	 113
  36	 115
  36	 116
  36	 117
  36	 119
  37	  41
  37	  43
  37	  45
  37	  46
  37	  47
  37	  48
  37	  50
  37	  51
  37	  52
  37	  53
  37	  57
  37	  58
  37	  59
  37	  61
  37	  62
  37	  64
  37	  69
  37	  71
  37	  72
  37	  74
  37	  75
  37	  76
  37	  78
  37	  79
  37	  81
  37	  82
  37	  84
  37	  85
  37	  90
  37	  95
  37	  98
  37	 101
  37	 102
  37	 109
  37	 110
  37	 111
  37	 112
  37	 113
  37	 115
  37	 116
  37	 118
  38	  40
  38	  45
  38	  48
  38	  51
  38	  57
  38	  60
  38	  61
  38	  62
  38	  63
  38	  65
  38	  70
  38	  72
  38	  73
  38	  77
  38	  81
  38	  82
  38	  83
  38	  85
  38	  87
  38	  88
  38	  89
  38	  90
  38	  92
  38	  93
  38	  95
  38	  96
  38	  97
  38	 102
  38	 103
  38	 104
  38	 107
  38	 108
  38	 109
  38	 113
  38	 114
  38	 115
  39	  40
  39	  41
  39	  42
  39	  43
  39	  46
  39	  47
  39	  48
  39	  53
  39	  54
  39	  57
  39	  61
  39	  66
  39	  68
  39	  69
  39	  70
  39	  71
  39	  72
  39	  73
  39	  75
  39	  77
  39	  79
  39	  81
  39	  85
  39	  86
  39	  87
  39	  92
  39	  93
  39	  95
  39	  98
  39	  99
  39	 101
  39	 103
  39	 110
  39	 111
  39	 112
  39	 115
  39	 117
  40	  42
  40	  46
  40	  47
  40	  49
  40	  56
  40	  58
  40	  59
  40	  61
  40	  63
  40	  64
  40	  65
  40	  67
  40	  72
  40	  73
  40	  74
  40	  76
  40	  78
  40	  84
  40	  88
  40	  89
  40	  90
  40	  95
  40	  96
  40	  97
  40	  98
  40	  99
  40	 100
  40	 103
  40	 104
  40	 108
  40	 110
  40	 111
  40	 112
  40	 115
  40	 116
  40	 117
  41	  44
  41	  47
  41	  48
  41	  49
  41	  51
  41	  52
  41	  53
  41	  54
  41	  56
  41	  57
  41	  59
  41	  61
  41	  63
  41	  64
  41	  66
  41	  67
  41	  71
  41	  73
  41	  74
  41	  76
  41	  80
  41	  83
  41	  85
  41	  86
  41	  88
  41	  90
  41	  91
  41	  95
  41	  96
  41	  97
  41	  99
  41	 100
  41	 101
  41	 103
  41	 105
  41	 106
  41	 107
  41	 109
  41	 111
  41	 113
  41	 117
  41	 118
  42	  44
  42	  46
  42	  49
  42	  51
  42	  54
  42	  57
  42	  62
  42	  63
  42	  64
  42	  68
  42	  72
  42	  76
  42	  77
  42	  79
  42	  80
  42	  81
  42	  82
  42	  83
  42	  85
  42	  89
  42	  90
  42	  92
  42	  93
  42	  95
  42	  98
  42	  99
  42	 100
  42	 101
  42	 103
  42	 104
  42	 109
  42	 110
  42	 111
  42	 112
  42	 116
  42	 118
  43	  46
  43	  48
  43	  50
  43	  52
  43	  55
  43	  58
  43	  61
  43	  63
  43	  64
  43	  65
  43	  73
  43	  74
  43	  75
  43	  77
  43	  78
  43	  79
  43	  82
  43	  88
  43	  89
  43	  90
  43	  91
  43	  92
  43	  93
  43	  95
  43	  96
  43	  97
  43	  98
  43	  99
  43	 104
  43	 105
  43	 107
  43	 108
  43	 110
  43	 111
  43	 112
  43	 113
  43	 115
  43	 118
  43	 119
  44	  48
  44	  50
  44	  52
  44	  56
  44	  57
  44	  58
  44	  59
  44	  60
  44	  68
  44	  69
  44	  70
  44	  72
  44	  78
  44	  80
  44	  85
  44	  86
  44	  87
  44	  88
  44	  90
  44	  92
  44	  94
  44	 100
  44	 105
  44	 107
  44	 109
  44	 110
  44	 112
  44	 113
  44	 114
  44	 115
  44	 118
  45	  48
  45	  50
  45	  51
  45	  52
  45	  53
  45	  54
  45	  56
  45	  58
  45	  60
  45	  62
  45	  69
  45	  71
  45	  74
  45	  75
  45	  76
  45	  77
  45	  78
  45	  81
  45	  82
  45	  84
  45	  86
  45	  88
  45	  90
  45	  91
  45	  94
  45	  97
  45	 100
  45	 101
  45	 102
  45	 103
  45	 105
  45	 107
  45	 108
  45	 109
  45	 111
  45	 112
  45	 113
  45	 115
  45	 119
  46	  48
  46	  53
  46	  54
  46	  56
  46	  57
  46	  59
  46	  61
  46	  62
  46	  65
  46	  66
  46	  68
  46	  70
  46	  71
  46	  72
  46	  74
  46	  75
  46	  79
  46	  80
  46	  81
  46	  82
  46	  84
  46	  86
  46	  87
  46	  88
  46	  91
  46	  92
  46	  94
  46	  96
  46	 100
  46	 102
  46	 103
  46	 106
  46	 108
  46	 114
  46	 116
  46	 118
  47	  51
  47	  52
  47	  53
  47	  54
  47	  55
  47	  56
  47	  57
  47	  58
  47	  59
  47	  61
  47	  63
  47	  65
  47	  66
  47	  67
  47	  69
  47	  70
  47	  71
  47	  74
  47	  75
  47	  76
  47	  81
  47	  83
  47	  87
  47	  88
  47	  90
  47	  92
  47	  95
  47	 103
  47	 104
  47	 106
  47	 107
  47	 109
  47	 110
  47	 113
  47	 115
  47	 118
  47	 119
  48	  49
  48	  51
  48	  52
  48	  53
  48	  55
  48	  56
  48	  57
  48	  58
  48	  60
  48	  62
  48	  67
  48	  68
  48	  70
  48	  71
  48	  72
  48	  73
  48	  79
  48	  84
  48	  85
  48	  87
  48	  89
  48	  92
  48	  93
  48	  95
  48	  99
  48	 101
  48	 102
  48	 103
  48	 104
  48	 105
  48	 111
  48	 112
  48	 115
  48	 116
  48	 118
  48	 119
  49	  51
  49	  57
  49	  58
  49	  59
  49	  65
  49	  66
  49	  68
  49	  71
  49	  74
  49	  75
  49	  80
  49	  81
  49	  82
  49	  83
  49	  84
  49	  85
  49	  87
  49	  90
  49	  91
  49	  92
  49	  93
  49	  96
  49	  97
  49	  98
  49	  99
  49	 100
  49	 102
  49	 103
  49	 106
  49	 107
  49	 109
  49	 110
  49	 117
  50	  51
  50	  54
  50	  56
  50	  59
  50	  61
  50	  62
  50	  65
  50	  66
  50	  68
  50	  69
  50	  70
  50	  77
  50	  78
  50	  82
  50	  84
  50	  85
  50	  86
  50	  88
  50	  89
  50	  92
  50	  93
  50	  94
  50	  95
  50	  96
  50	  97
  50	  98
  50	 100
  50	 101
  50	 103
  50	 107
  50	 108
  50	 111
  50	 112
  50	 113
  50	 116
  50	 117
  50	 118
  50	 119
  51	  54
  51	  55
  51	  57
  51	  59
  51	  60
  51	  61
  51	  62
  51	  63
  51	  64
  51	  66
  51	  68
  51	  71
  51	  72
  51	  75
  51	  76
  51	  77
  51	  78
  51	  80
  51	  81
  51	  82
  51	  85
  51	  86
  51	  87
  51	  91
  51	  97
  51	 101
  51	 103
  51	 104
  51	 105
  51	 106
  51	 107
  51	 109
  51	 110
  51	 111
  51	 113
  51	 117
  51	 118
  51	 119
  52	  54
  52	  55
  52	  58
  52	  61
  52	  64
  52	  65
  52	  66
  52	  68
  52	  69
  52	  70
  52	  73
  52	  76
  52	  79
  52	  80
  52	  86
  52	  88
  52	  90
  52	  92
  52	  93
  52	 101
  52	 103
  52	 106
  52	 107
  52	 111
  52	 112
  52	 113
  52	 114
  52	 116
  52	 119
  53	  61
  53	  62
  53	  63
  53	  65
  53	  68
  53	  69
  53	  71
  53	  72
  53	  73
  53	  74
  53	  75
  53	  77
  53	  78
  53	  80
  53	  81
  53	  82
  53	  84
  53	  86
  53	  87
  53	  88
  53	  89
  53	  90
  53	  94
  53	  96
  53	 101
  53	 103
  53	 104
  53	 105
  53	 108
  53	 111
  53	 114
  53	 115
  53	 116
  53	 117
  53	 119
  54	  55
  54	  58
  54	  59
  54	  65
  54	  67
  54	  70
  54	  72
  54	  73
  54	  74
  54	  76
  54	  80
  54	  82
  54	  84
  54	  85
  54	  87
  54	  88
  54	  95
  54	  98
  54	 101
  54	 102
  54	 103
  54	 104
  54	 107
  54	 108
  54	 109
  54	 111
  54	 113
  54	 114
  54	 116
  54	 119
  55	  56
  55	  58
  55	  61
  55	  64
  55	  74
  55	  75
  55	  76
  55	  79
  55	  82
  55	  85
  55	  86
  55	  87
  55	  88
  55	  90
  55	  92
  55	  99
  55	 100
  55	 101
  55	 105
  55	 108
  55	 109
  55	 111
  55	 112
  55	 115
  55	 117
  55	 118
  56	  59
  56	  60
  56	  65
  56	  67
  56	  68
  56	  69
  56	  75
  56	  79
  56	  81
  56	  85
  56	  87
  56	  88
  56	  89
  56	  91
  56	  92
  56	  93
  56	  95
  56	  98
  56	  99
  56	 100
  56	 101
  56	 102
  56	 103
  56	 104
  56	 106
  56	 109
  56	 110
  56	 111
  56	 112
  56	 116
  56	 118
  56	 119
  57	  58
  57	  59
  57	  60
  57	  63
  57	  65
  57	  67
  57	  68
  57	  71
  57	  73
  57	  77
  57	  78
  57	  81
  57	  83
  57	  84
  57	  86
  57	  90
  57	  92
  57	  93
  57	  95
  57	  98
  57	  99
  57	 101
  57	 102
  57	 104
  57	 106
  57	 107
  57	 109
  57	 111
  57	 113
  57	 114
  57	 115
  57	 116
  58	  59
  58	  60
  58	  61
  58	  62
  58	  64
  58	  65
  58	  73
  58	  76
  58	  77
  58	  78
  58	  82
  58	  83
  58	  84
  58	  85
  58	  89
  58	  91
  58	  92
  58	  95
  58	  96
  58	  97
  58	  98
  58	  99
  58	 100
  58	 101
  58	 102
  58	 103
  58	 107
  58	 109
  58	 111
  58	 112
  58	 113
  58	 114
  58	 115
  58	 116
  58	 117
  58	 118
  59	  61
  59	  62
  59	  64
  59	  65
  59	  67
  59	  68
  59	  71
  59	  73
  59	  74
  59	  75
  59	  77
  59	  78
  59	  82
  59	  83
  59	  87
  59	  88
  59	  89
  59	  92
  59	  93
  59	  95
  59	  97
  59	  98
  59	  99
  59	 100
  59	 101
  59	 105
  59	 107
  59	 109
  59	 110
  59	 111
  59	 114
  59	 116
  59	 118
  59	 119
  60	  61
  60	  62
  60	  63
  60	  66
  60	  67
  60	  68
  60	  69
  60	  73
  60	  74
  60	  75
  60	  76
  60	  77
  60	  79
  60	  80
  60	  81
  60	  86
  60	  91
  60	  95
  60	  96
  60	  97
  60	 100
  60	 101
  60	 103
  60	 104
  60	 105
  60	 107
  60	 110
  60	 112
  60	 113
  60	 115
  60	 116
  60	 118
  61	  63
  61	  66
  61	  70
  61	  72
  61	  75
  61	  80
  61	  82
  61	  83
  61	  86
  61	  89
  61	  92
  61	  93
  61	  95
  61	  98
  61	  99
  61	 101
  61	 102
  61	 104
  61	 105
  61	 106
  61	 107
  61	 108
  61	 109
  61	 110
  61	 112
  61	 115
  61	 116
  61	 119
  62	  65
  62	  66
  62	  69
  62	  74
  62	  80
  62	  83
  62	  84
  62	  85
  62	  87
  62	  88
  62	  89
  62	  92
  62	  93
  62	  94
  62	  95
  62	  96
  62	  98
  62	  99
  62	 102
  62	 106
  62	 109
  62	 112
  62	 113
  62	 114
  62	 116
  62	 117
  62	 118
  62	 119
  63	  67
  63	  69
  63	  71
  63	  75
  63	  76
  63	  80
  63	  81
  63	  85
  63	  86
  63	  87
  63	  89
  63	  90
  63	  91
  63	  92
  63	  93
  63	  94
  63	  97
  63	  98
  63	 100
  63	 101
  63	 102
  63	 103
  63	 104
  63	 105
  63	 106
  63	 107
  63	 110
  63	 111
  63	 112
  63	 116
  63	 117
  64	  66
  64	  67
  64	  68
  64	  70
  64	  73
  64	  74
  64	  75
  64	  76
  64	  79
  64	  82
  64	  83
  64	  85
  64	  89
  64	  90
  64	  93
  64	  94
  64	  95
  64	  97
  64	 101
  64	 102
  64	 103
  64	 104
  64	 106
  64	 108
  64	 111
  64	 113
  64	 114
  64	 115
  64	 117
  64	 118
  64	 119
  65	  66
  65	  67
  65	  70
  65	  71
  65	  72
  65	  73
  65	  74
  65	  76
  65	  77
  65	  79
  65	  80
  65	  82
  65	  84
  65	  87
  65	  89
  65	  91
  65	  92
  65	  93
  65	 100
  65	 101
  65	 102
  65	 103
  65	 104
  65	 105
  65	 108
  65	 109
  65	 112
  65	 114
  65	 116
  65	 117
  65	 118
  66	  71
  66	  72
  66	  73
  66	  75
  66	  76
  66	  77
  66	  78
  66	  81
  66	  85
  66	  89
  66	  90
  66	  93
  66	  97
  66	  98
  66	  99
  66	 100
  66	 105
  66	 106
  66	 109
  66	 110
  66	 111
  66	 112
  66	 113
  66	 114
  66	 115
  66	 116
  67	  71
  67	  72
  67	  73
  67	  74
  67	  75
  67	  77
  67	  79
  67	  80
  67	  82
  67	  85
  67	  88
  67	  92
  67	  94
  67	  95
  67	  96
  67	  99
  67	 101
  67	 102
  67	 103
  67	 104
  67	 106
  67	 115
  67	 116
  67	 117
  68	  70
  68	  71
  68	  73
  68	  75
  68	  76
  68	  77
  68	  78
  68	  80
  68	  82
  68	  90
  68	  92
  68	  95
  68	  96
  68	  98
  68	  99
  68	 101
  68	 104
  68	 105
  68	 107
  68	 108
  68	 111
  68	 113
  68	 116
  68	 117
  68	 118
  69	  70
  69	  72
  69	  73
  69	  74
  69	  75
  69	  76
  69	  78
  69	  79
  69	  81
  69	  82
  69	  83
  69	  85
  69	  87
  69	  90
  69	  91
  69	  95
  69	  96
  69	  98
  69	  99
  69	 100
  69	 101
  69	 102
  69	 103
  69	 104
  69	 105
  69	 106
  69	 107
  69	 108
  69	 110
  69	 111
  69	 112
  69	 115
  69	 116
  69	 118
  69	 119
  70	  81
  70	  88
  70	  89
  70	  92
  70	  94
  70	  98
  70	  99
  70	 100
  70	 101
  70	 102
  70	 104
  70	 105
  70	 106
  70	 108
  70	 109
  70	 110
  70	 113
  70	 116
  70	 117
  70	 118
  70	 119
  71	  73
  71	  74
  71	  76
  71	  78
  71	  79
  71	  80
  71	  84
  71	  86
  71	  90
  71	  91
  71	  93
  71	  95
  71	  99
  71	 101
  71	 104
  71	 108
  71	 109
  71	 110
  71	 112
  71	 114
  71	 115
  71	 119
  72	  74
  72	  77
  72	  78
  72	  81
  72	  82
  72	  84
  72	  85
  72	  88
  72	  90
  72	  92
  72	  95
  72	  97
  72	 102
  72	 104
  72	 107
  72	 110
  72	 111
  72	 113
  72	 117
  72	 119
  73	  77
  73	  78
  73	  79
  73	  80
  73	  82
  73	  84
  73	  86
  73	  87
  73	  88
  73	  95
  73	  98
  73	  99
  73	 100
  73	 101
  73	 102
  73	 104
  73	 111
  73	 112
  73	 115
  73	 116
  74	  75
  74	  76
  74	  80
  74	  81
  74	  84
  74	  85
  74	  86
  74	  87
  74	  88
  74	  89
  74	  92
  74	  94
  74	  96
  74	  99
  74	 100
  74	 101
  74	 103
  74	 104
  74	 108
  74	 111
  74	 112
  74	 116
  74	 118
  75	  76
  75	  77
  75	  82
  75	  85
  75	  87
  75	  91
  75	  93
  75	  95
  75	  96
  75	  98
  75	 101
  75	 102
  75	 104
  75	 107
  75	 109
  75	 113
  75	 116
  75	 117
  76	  78
  76	  79
  76	  82
  76	  87
  76	  95
  76	  96
  76	 101
  76	 102
  76	 103
  76	 104
  76	 107
  76	 108
  76	 110
  76	 112
  76	 113
  77	  79
  77	  80
  77	  81
  77	  82
  77	  84
  77	  85
  77	  87
  77	  88
  77	  89
  77	  91
  77	  92
  77	  94
  77	  96
  77	  98
  77	  99
  77	 101
  77	 103
  77	 104
  77	 105
  77	 107
  77	 108
  77	 112
  77	 115
  77	 119
  78	  79
  78	  80
  78	  82
  78	  83
  78	  84
  78	  87
  78	  91
  78	  93
  78	  97
  78	  98
  78	 100
  78	 101
  78	 102
  78	 103
  78	 108
  78	 109
  78	 111
  78	 114
  78	 116
  78	 119
  79	  81
  79	  82
  79	  83
  79	  85
  79	  88
  79	  89
  79	  90
  79	  91
  79	  93
  79	  98
  79	  99
  79	 104
  79	 106
  79	 109
  79	 114
  79	 115
  79	 116
  79	 118
  79	 119
  80	  81
  80	  82
  80	  89
  80	  90
  80	  92
  80	  93
  80	  94
  80	  97
  80	  99
  80	 101
  80	 102
  80	 104
  80	 105
  80	 107
  80	 108
  80	 110
  80	 111
  80	 112
  80	 114
  80	 115
  80	 116
  80	 119
  81	  82
  81	  85
  81	  86
  81	  87
  81	  89
  81	  92
  81	  93
  81	  94
  81	  95
  81	  96
  81	  97
  81	  98
  81	  99
  81	 100
  81	 101
  81	 107
  81	 108
  81	 113
  81	 114
  81	 119
  82	  84
  82	  86
  82	  88
  82	  90
  82	  91
  82	  93
  82	  94
  82	  95
  82	  98
  82	  99
  82	 100
  82	 102
  82	 103
  82	 105
  82	 107
  82	 108
  82	 110
  82	 111
  82	 114
  82	 115
  82	 116
  83	  88
  83	  89
  83	  90
  83	  92
  83	  94
  83	  95
  83	  96
  83	 100
  83	 102
  83	 104
  83	 105
  83	 106
  83	 109
  83	 110
  83	 112
  83	 114
  83	 115
  83	 116
  83	 117
  83	 118
  83	 119
  84	  86
  84	  87
  84	  88
  84	  89
  84	  90
  84	  91
  84	  93
  84	  98
  84	 100
  84	 105
  84	 108
  84	 109
  84	 110
  84	 112
  84	 113
  84	 114
  84	 119
  85	  86
  85	  89
  85	  90
  85	  94
  85	  96
  85	  99
  85	 101
  85	 102
  85	 103
  85	 104
  85	 108
  85	 113
  85	 114
  85	 116
  85	 117
  85	 118
  86	  87
  86	  89
  86	  90
  86	  91
  86	  92
  86	  93
  86	  97
  86	  98
  86	 100
  86	 105
  86	 108
  86	 117
  86	 118
  87	  88
  87	  92
  87	  93
  87	  95
  87	  96
  87	  97
  87	 100
  87	 102
  87	 103
  87	 107
  87	 110
  87	 114
  87	 117
  87	 119
  88	  89
  88	  91
  88	  92
  88	  95
  88	  96
  88	  99
  88	 100
  88	 104
  88	 105
  88	 110
  88	 111
  88	 113
  88	 114
  88	 115
  88	 118
  89	  90
  89	  93
  89	  94
  89	  95
  89	  96
  89	  98
  89	 103
  89	 104
  89	 107
  89	 109
  89	 110
  89	 111
  89	 116
  89	 117
  89	 118
  90	  91
  90	  94
  90	  95
  90	  97
  90	 103
  90	 107
  90	 108
  90	 110
  90	 111
  90	 114
  90	 117
  91	  92
  91	  93
  91	  94
  91	  96
  91	  97
  91	  98
  91	  99
  91	 103
  91	 104
  91	 105
  91	 106
  91	 116
  91	 117
  91	 118
  92	  95
  92	  98
  92	  99
  92	 101
  92	 103
  92	 108
  92	 110
  92	 111
  92	 113
  92	 114
  92	 115
  92	 116
  92	 119
  93	  94
  93	  95
  93	  99
  93	 100
  93	 101
  93	 102
  93	 106
  93	 107
  93	 108
  93	 109
  93	 112
  93	 114
  93	 117
  93	 118
  94	 100
  94	 101
  94	 103
  94	 105
  94	 106
  94	 107
  94	 108
  94	 110
  94	 112
  94	 113
  94	 115
  94	 118
  94	 119
  95	  97
  95	  98
  95	  99
  95	 100
  95	 102
  95	 103
  95	 104
  95	 108
  95	 109
  95	 110
  95	 111
  95	 115
  95	 119
  96	  97
  96	 101
  96	 102
  96	 108
  96	 109
  96	 110
  96	 111
  96	 113
  96	 114
  96	 116
  96	 117
  96	 118
  97	  99
  97	 101
  97	 102
  97	 103
  97	 104
  97	 106
  97	 110
  97	 113
  97	 114
  97	 118
  98	 101
  98	 102
  98	 103
  98	 104
  98	 105
  98	 108
  98	 109
  98	 112
  98	 113
  98	 114
  98	 115
  98	 117
  98	 118
  98	 119
  99	 100
  99	 102
  99	 108
  99	 109
  99	 110
  99	 112
  99	 114
  99	 115
  99	 116
  99	 117
  99	 118
  99	 119
 100	 103
 100	 104
 100	 106
 100	 107
 100	 111
 100	 112
 100	 113
 100	 117
 101	 103
 101	 104
 101	 105
 101	 107
 101	 108
 101	 109
 101	 113
 101	 115
 101	 116
 101	 117
 101	 119
 102	 103
 102	 105
 102	 107
 102	 108
 102	 109
 102	 111
 102	 112
 102	 115
 103	 107
 103	 108
 103	 110
 103	 114
 103	 115
 103	 119
 104	 109
 104	 110
 104	 116
 104	 117
 105	 106
 105	 107
 105	 108
 105	 115
 105	 116
 105	 117
 105	 119
 106	 108
 106	 109
 106	 111
 106	 112
 106	 114
 106	 116
 106	 118
 107	 111
 107	 112
 107	 115
 107	 117
 107	 118
 107	 119
 108	 114
 108	 117
 108	 118
 108	 119
 109	 110
 109	 112
 109	 114
 109	 116
 109	 117
 109	 119
 110	 111
 110	 116
 110	 117
 110	 118
 111	 112
 111	 118
 112	 113
 112	 114
 112	 116
 112	 118
 112	 119
 113	 115
 113	 117
 113	 118
 113	 119
 114	 115
 114	 117
 114	 119
 115	 119
 116	 118
 117	 118
 117	 119
 118	 119
;
